CMPL model generation - running

CMPL version: 1.11.0
Authors: Thomas Schleiff, Mike Steglich
Distributed under the GPLv3 

create model instance ...
write model instance ...
CMPL model generation - finished

Solver - running


Welcome to IBM(R) ILOG(R) CPLEX(R) Interactive Optimizer 12.7.1.0
  with Simplex, Mixed Integer & Barrier Optimizers
5725-A06 5725-A29 5724-Y48 5724-Y49 5724-Y54 5724-Y55 5655-Y21
Copyright IBM Corp. 1988, 2017.  All Rights Reserved.

Type 'help' for a list of available commands.
Type 'help' followed by a command name for more
information on commands.

CPLEX> Specified objective sense: MINIMIZE
Selected objective  name:  line[1]
Selected RHS        name:  RHS
Selected bound      name:  BOUND
Problem '/tmp/cmpl.T24312.mps' read.
Read time = 0.06 sec. (10.13 ticks)
CPLEX> CPXPARAM_Read_APIEncoding                        "UTF-8"
Tried aggregator 3 times.
MIP Presolve eliminated 23932 rows and 37440 columns.
MIP Presolve modified 425 coefficients.
Aggregator did 817 substitutions.
Reduced MIP has 3173 rows, 4198 columns, and 12414 nonzeros.
Reduced MIP has 3988 binaries, 0 generals, 0 SOSs, and 0 indicators.
Presolve time = 0.06 sec. (50.41 ticks)
Found incumbent of value 1205.086680 after 0.11 sec. (79.97 ticks)
Probing fixed 14 vars, tightened 0 bounds.
Probing time = 0.01 sec. (5.48 ticks)
Tried aggregator 1 time.
MIP Presolve eliminated 0 rows and 14 columns.
MIP Presolve modified 85 coefficients.
Reduced MIP has 3173 rows, 4184 columns, and 12386 nonzeros.
Reduced MIP has 4184 binaries, 0 generals, 0 SOSs, and 0 indicators.
Presolve time = 0.01 sec. (10.44 ticks)
Probing time = 0.01 sec. (2.86 ticks)
Clique table members: 7642.
MIP emphasis: balance optimality and feasibility.
MIP search method: dynamic search.
Parallel mode: none, using 1 thread.
Root relaxation solution time = 0.01 sec. (7.55 ticks)

        Nodes                                         Cuts/
   Node  Left     Objective  IInf  Best Integer    Best Bound    ItCnt     Gap

*     0+    0                         1205.0867      -12.0608           101.00%
      0     0      334.8815     3     1205.0867      334.8815      282   72.21%
*     0+    0                          338.8390      334.8815             1.17%
*     0+    0                          334.9500      334.8815             0.02%
*     0     0      integral     0      334.9077       Cuts: 7      284    0.00%
      0     0        cutoff            334.9077      334.9077      284    0.00%
Elapsed time = 0.19 sec. (130.26 ticks, tree = 0.01 MB, solutions = 4)

GUB cover cuts applied:  1
Clique cuts applied:  1
Cover cuts applied:  3
Gomory fractional cuts applied:  2

Root node processing (before b&c):
  Real time             =    0.20 sec. (132.37 ticks)
Sequential b&c:
  Real time             =    0.00 sec. (0.00 ticks)
                          ------------
Total (root+branch&cut) =    0.20 sec. (132.37 ticks)

Solution pool: 4 solutions saved.

MIP - Integer optimal solution:  Objective =  3.3490769100e+02
Solution time =    0.20 sec.  Iterations = 284  Nodes = 0
Deterministic time = 132.49 ticks  (677.55 ticks/sec)

CPLEX> Incumbent solution written to file '/tmp/cmpl.T24312.gsol'.
CPLEX> 
CMPL: Time used for model generation: 1 seconds
CMPL: Time used for solving the model: 1 seconds


Solution written to ASCII file: results/output_generated_conf_0.6/2016-05-02-5/fair-nonlinear.sol

Solver - finished
